CMPL model generation - running

CMPL version: 1.11.0
Authors: Thomas Schleiff, Mike Steglich
Distributed under the GPLv3 

create model instance ...
write model instance ...
CMPL model generation - finished

Solver - running


Welcome to IBM(R) ILOG(R) CPLEX(R) Interactive Optimizer 12.7.1.0
  with Simplex, Mixed Integer & Barrier Optimizers
5725-A06 5725-A29 5724-Y48 5724-Y49 5724-Y54 5724-Y55 5655-Y21
Copyright IBM Corp. 1988, 2017.  All Rights Reserved.

Type 'help' for a list of available commands.
Type 'help' followed by a command name for more
information on commands.

CPLEX> Specified objective sense: MINIMIZE
Selected objective  name:  line[1]
Selected RHS        name:  RHS
Selected bound      name:  BOUND
Problem '/tmp/cmpl.T23838.mps' read.
Read time = 0.09 sec. (8.17 ticks)
CPLEX> CPXPARAM_Read_APIEncoding                        "UTF-8"
Tried aggregator 3 times.
MIP Presolve eliminated 19259 rows and 30750 columns.
MIP Presolve modified 340 coefficients.
Aggregator did 618 substitutions.
Reduced MIP has 2478 rows, 3225 columns, and 9419 nonzeros.
Reduced MIP has 3057 binaries, 0 generals, 0 SOSs, and 0 indicators.
Presolve time = 0.11 sec. (40.33 ticks)
Found incumbent of value 468.292950 after 0.16 sec. (58.92 ticks)
Probing fixed 4 vars, tightened 0 bounds.
Probing time = 0.02 sec. (4.16 ticks)
Tried aggregator 1 time.
MIP Presolve eliminated 0 rows and 4 columns.
MIP Presolve modified 15 coefficients.
Reduced MIP has 2478 rows, 3221 columns, and 9411 nonzeros.
Reduced MIP has 3221 binaries, 0 generals, 0 SOSs, and 0 indicators.
Presolve time = 0.02 sec. (7.94 ticks)
Probing time = 0.01 sec. (2.67 ticks)
Clique table members: 5821.
MIP emphasis: balance optimality and feasibility.
MIP search method: dynamic search.
Parallel mode: none, using 1 thread.
Root relaxation solution time = 0.01 sec. (4.35 ticks)

        Nodes                                         Cuts/
   Node  Left     Objective  IInf  Best Integer    Best Bound    ItCnt     Gap

*     0+    0                          468.2929      -44.2845           109.46%
      0     0       92.0138    15      468.2929       92.0138       89   80.35%
*     0+    0                          109.9130       92.0138            16.28%
*     0+    0                           92.4424       92.0138             0.46%
*     0     0      integral     0       92.3867      Cuts: 22      101    0.00%
      0     0        cutoff             92.3867       92.3867      101    0.00%
Elapsed time = 0.26 sec. (99.28 ticks, tree = 0.01 MB, solutions = 4)

Clique cuts applied:  4
Cover cuts applied:  12
Gomory fractional cuts applied:  6

Root node processing (before b&c):
  Real time             =    0.26 sec. (101.00 ticks)
Sequential b&c:
  Real time             =    0.00 sec. (0.00 ticks)
                          ------------
Total (root+branch&cut) =    0.26 sec. (101.00 ticks)

Solution pool: 4 solutions saved.

MIP - Integer optimal solution:  Objective =  9.2386664000e+01
Solution time =    0.26 sec.  Iterations = 101  Nodes = 0
Deterministic time = 101.10 ticks  (381.80 ticks/sec)

CPLEX> Incumbent solution written to file '/tmp/cmpl.T23838.gsol'.
CPLEX> 
CMPL: Time used for model generation: 2 seconds
CMPL: Time used for solving the model: 2 seconds


Solution written to ASCII file: results/output_generated_conf_0.3/2016-06-06-4/fair-nonlinear.sol

Solver - finished
